\ This file has been generated by DOcplex
\ ENCODING=ISO-8859-1
\Problem name: random_problem.lp

Minimize
 obj: - 940 x0 - 470 x1 - 235 x2 + 1352 x3 + 676 x4 + 338 x5 + 1572 x6 + 786 x7
      + 393 x8 + 1880 x9 + 940 x10 + 470 x11 + 1428 x12 + 714 x13 + 357 x14 + [
      21856 x0^2 + 21856 x0*x1 + 10928 x0*x2 + 3968 x0*x3 + 1984 x0*x4
      + 992 x0*x5 + 4736 x0*x6 + 2368 x0*x7 + 1184 x0*x8 + 3136 x0*x9
      + 1568 x0*x10 + 784 x0*x11 - 192 x0*x12 - 96 x0*x13 - 48 x0*x14
      + 5464 x1^2 + 5464 x1*x2 + 1984 x1*x3 + 992 x1*x4 + 496 x1*x5 + 2368 x1*x6
      + 1184 x1*x7 + 592 x1*x8 + 1568 x1*x9 + 784 x1*x10 + 392 x1*x11
      - 96 x1*x12 - 48 x1*x13 - 24 x1*x14 + 1366 x2^2 + 992 x2*x3 + 496 x2*x4
      + 248 x2*x5 + 1184 x2*x6 + 592 x2*x7 + 296 x2*x8 + 784 x2*x9 + 392 x2*x10
      + 196 x2*x11 - 48 x2*x12 - 24 x2*x13 - 12 x2*x14 + 4896 x3^2 + 4896 x3*x4
      + 2448 x3*x5 + 960 x3*x6 + 480 x3*x7 + 240 x3*x8 + 4160 x3*x9
      + 2080 x3*x10 + 1040 x3*x11 - 192 x3*x12 - 96 x3*x13 - 48 x3*x14
      + 1224 x4^2 + 1224 x4*x5 + 480 x4*x6 + 240 x4*x7 + 120 x4*x8 + 2080 x4*x9
      + 1040 x4*x10 + 520 x4*x11 - 96 x4*x12 - 48 x4*x13 - 24 x4*x14 + 306 x5^2
      + 240 x5*x6 + 120 x5*x7 + 60 x5*x8 + 1040 x5*x9 + 520 x5*x10 + 260 x5*x11
      - 48 x5*x12 - 24 x5*x13 - 12 x5*x14 + 1984 x6^2 + 1984 x6*x7 + 992 x6*x8
      + 2560 x6*x9 + 1280 x6*x10 + 640 x6*x11 + 768 x6*x12 + 384 x6*x13
      + 192 x6*x14 + 496 x7^2 + 496 x7*x8 + 1280 x7*x9 + 640 x7*x10 + 320 x7*x11
      + 384 x7*x12 + 192 x7*x13 + 96 x7*x14 + 124 x8^2 + 640 x8*x9 + 320 x8*x10
      + 160 x8*x11 + 192 x8*x12 + 96 x8*x13 + 48 x8*x14 + 5472 x9^2
      + 5472 x9*x10 + 2736 x9*x11 - 256 x9*x12 - 128 x9*x13 - 64 x9*x14
      + 1368 x10^2 + 1368 x10*x11 - 128 x10*x12 - 64 x10*x13 - 32 x10*x14
      + 342 x11^2 - 64 x11*x12 - 32 x11*x13 - 16 x11*x14 + 960 x12^2
      + 960 x12*x13 + 480 x12*x14 + 240 x13^2 + 240 x13*x14 + 60 x14^2 ]/2
Subject To
 c0: 4 x0 + 2 x1 + x2 + 4 x3 + 2 x4 + x5 + 4 x6 + 2 x7 + x8 + 4 x9 + 2 x10 + x11
     + 4 x12 + 2 x13 + x14 = 7

Bounds
 0 <= x0 <= 1
 0 <= x1 <= 1
 0 <= x2 <= 1
 0 <= x3 <= 1
 0 <= x4 <= 1
 0 <= x5 <= 1
 0 <= x6 <= 1
 0 <= x7 <= 1
 0 <= x8 <= 1
 0 <= x9 <= 1
 0 <= x10 <= 1
 0 <= x11 <= 1
 0 <= x12 <= 1
 0 <= x13 <= 1
 0 <= x14 <= 1

Binaries
 x0 x1 x2 x3 x4 x5 x6 x7 x8 x9 x10 x11 x12 x13 x14
End
